p wcnf 102 124 125 
1 -43 -85 0 
1 47 -64 0 
1 80 86 0 
1 -89 23 0 
1 74 -40 0 
1 -79 -26 0 
1 -49 -77 0 
1 -98 68 0 
1 -70 54 0 
1 90 -95 0 
1 -42 -101 0 
1 -71 -7 0 
1 -81 93 0 
1 32 -30 0 
1 -27 -22 0 
1 -71 15 0 
1 -80 -51 0 
1 -82 61 0 
1 92 1 0 
1 34 -69 0 
1 -41 38 0 
1 -51 21 0 
1 59 -54 0 
1 31 -36 0 
1 62 8 0 
1 -25 16 0 
1 50 80 0 
1 -40 -21 0 
1 59 88 0 
1 10 37 0 
1 79 -70 0 
1 -84 25 0 
1 78 -55 0 
1 -21 81 0 
1 -32 64 0 
1 -58 -83 0 
1 -75 67 0 
1 57 92 0 
1 -92 -53 0 
1 -52 -99 0 
1 -91 -35 0 
1 -45 59 0 
1 90 50 0 
1 -5 37 0 
1 54 50 0 
1 -19 26 0 
1 -58 82 0 
1 72 -16 0 
1 97 79 0 
1 92 -71 0 
1 93 31 0 
1 -12 49 0 
1 88 -96 0 
1 -71 -100 0 
1 -85 -42 0 
1 49 -19 0 
1 -20 27 0 
1 -24 -15 0 
1 -50 89 0 
1 -34 36 0 
1 102 -93 0 
1 -79 82 0 
1 90 -98 0 
1 -27 -81 0 
1 4 100 0 
1 21 -63 0 
1 76 40 0 
1 -38 -82 0 
1 -67 47 0 
1 -16 -43 0 
1 80 89 0 
1 -10 -61 0 
1 -57 -84 0 
1 -41 40 0 
1 -52 -58 0 
1 -21 64 0 
1 -58 39 0 
1 27 1 0 
1 59 -70 0 
1 38 53 0 
1 -102 -29 0 
1 2 -16 0 
1 -23 82 0 
1 -33 61 0 
1 82 -7 0 
1 -69 -61 0 
1 9 63 0 
1 32 8 0 
1 86 73 0 
1 -4 -10 0 
1 91 -13 0 
1 24 -69 0 
1 88 55 0 
1 36 63 0 
1 -57 -89 0 
1 1 -94 0 
1 25 -57 0 
1 -51 35 0 
1 100 3 0 
1 8 59 0 
1 -90 -84 0 
1 64 68 0 
1 19 -56 0 
1 -93 -9 0 
1 -67 39 0 
1 14 85 0 
1 95 -99 0 
1 35 37 0 
1 -38 -83 0 
1 -28 -17 0 
1 -28 -79 0 
1 -85 23 0 
1 -82 -45 0 
1 62 95 0 
1 -11 -44 0 
1 23 -92 0 
1 -76 -48 0 
1 87 -58 0 
1 -26 -87 0 
1 2 60 0 
1 90 13 0 
1 10 58 0 
1 11 -98 0 
1 101 62 0 
